benchmarks/VRPTW/TSPTW/solution/n60w100.003.txt.solution
1 10 56 4 2 25 33 7 41 31 45 55 36 15 51 23 17 9 37 22 30 60 18 12 6 27 29 20 42 52 53 34 59 44 47 58 46 40 39 57 16 43 8 49 48 14 13 21 32 5 19 3 24 50 28 11 26 54 35 38 61 
560
